language Essence 1.3
letting nnodes be 10
letting nrings be 6
letting capacity be 5
letting demand be {{1, 2},
{1, 5},
{1, 6},
{1, 7},
{2, 5},
{2, 9},
{3, 4},
{3, 5},
{4, 5},
{4, 6},
{4, 8},
{5, 7},
{5, 9},
{6, 7},
{8, 10}}
